
Gurobi 12.0.2 (win64) logging started Tue Oct  7 14:40:42 2025

Set parameter LogFile to value "C:\Ioana\_uni\honours\slp\algorithm\Main_files\results\paracetamol after removing detox of napqi\Task_003_Sample002_irr_gurobi.log"
Gurobi Optimizer version 12.0.2 build v12.0.2rc0 (win64 - Windows 11.0 (26100.2))

CPU model: Intel(R) Core(TM) Ultra 5 125H, instruction set [SSE2|AVX|AVX2]
Thread count: 14 physical cores, 18 logical processors, using up to 18 threads

Non-default parameters:
TimeLimit  2200

Optimize a model with 47236 rows, 34518 columns and 146728 nonzeros
Model fingerprint: 0xa1fedf74
Variable types: 17269 continuous, 17249 integer (17249 binary)
Coefficient statistics:
  Matrix range     [1e-04, 8e+04]
  Objective range  [1e-04, 9e-01]
  Bounds range     [1e+00, 1e+03]
  RHS range        [1e+00, 1e+00]
Found heuristic solution: objective 1.8036473
Presolve removed 32879 rows and 23033 columns
Presolve time: 0.35s
Presolved: 14357 rows, 11485 columns, 46862 nonzeros
Variable types: 5696 continuous, 5789 integer (5789 binary)

Root relaxation: objective 2.471282e-02, 2339 iterations, 0.11 seconds (0.32 work units)

    Nodes    |    Current Node    |     Objective Bounds      |     Work
 Expl Unexpl |  Obj  Depth IntInf | Incumbent    BestBd   Gap | It/Node Time

     0     0    0.02471    0    2    1.80365    0.02471  98.6%     -    0s
H    0     0                       0.9042428    0.02471  97.3%     -    0s
H    0     0                       0.0560354    0.02471  55.9%     -    0s
     0     0    0.02471    0    2    0.05604    0.02471  55.9%     -    0s

Explored 1 nodes (2339 simplex iterations) in 0.54 seconds (0.79 work units)
Thread count was 18 (of 18 available processors)

Solution count 3: 0.0560354 0.904243 1.80365 

Optimal solution found (tolerance 1.00e-04)
Best objective 5.603542136161e-02, best bound 5.603542136161e-02, gap 0.0000%
